============================[ Problem Statistics ]=============================|                                                                             ||  Number of variables:          4242                                         ||  Number of clauses:           10490                                         ||  Parse time:                   0.86 s                                       ||                                                                             |============================[ Search Statistics ]==============================| Conflicts |          ORIGINAL         |          LEARNT          | Progress ||           |    Vars  Clauses Literals |    Limit  Clauses Lit/Cl |          |===============================================================================|       100 |    1591     6695  1399146 |     2454      100     53 | 62.501 % ||       250 |    1591     6695  1399146 |     2700      250     75 | 62.495 % |===============================================================================restarts              : 4conflicts             : 471            (361 /sec)decisions             : 830            (0.00 % random) (637 /sec)propagations          : 13787          (10573 /sec)conflict literals     : 40173          (94.43 % deleted)CPU time              : 1.304 sSATISFIABLE